submitit INFO (2023-04-30 19:21:49,228) - Starting with JobEnvironment(job_id=27537, hostname=cpunode26, local_rank=2(5), node=0(1), global_rank=2(5))
submitit INFO (2023-04-30 19:21:49,228) - Loading pickle: /h/30/pashootan/Matrix-Mult-CP/src/../logs/2x2x2_6_Apr30_19:21:46/27537_submitted.pkl
 ! --------------------------------------------------- CP Optimizer 22.1.1.0 --
 ! Satisfiability problem - 72 variables, 184 constraints
 ! TimeLimit            = 7200
 ! Workers              = 8
 ! LogPeriod            = 10000000
 ! RandomSeed           = 3365
 ! Initial process time : 0.02s (0.02s extraction + 0.00s propagation)
 !  . Log search space  : 114.1 (before), 114.1 (after)
 !  . Memory usage      : 535.3 kB (before), 535.3 kB (after)
 ! Using parallel search with 8 workers.
 ! ----------------------------------------------------------------------------
 !               Branches  Non-fixed    W       Branch decision
                   10000k          6    8        -1 != V5_0
                   10000k          5    1   F    -1  = U5_2
                   10000k          4    6         0  = V3_1
                   10000k          5    3   F     1  = W5_2
                   10000k          4    2         0  = U0_1
                   10000k          8    7   F    -1  = V2_0
                   10000k          5    4   F     0 != W0_1
                   10000k          6    5         1 != W5_3
                   20000k          6    8        -1 != U4_2
                   20000k          5    1        -1  = V1_1
                   20000k          5    3        -1  = U4_1
                   20000k          4    6   F     0  = U0_3
                   20000k          5    5   F    -1  = W1_0
                   20000k          5    4   F     1 != V2_3
                   20000k          4    2   F     0  = V2_1
                   20000k         10    7   F     0  = U3_0
                   30000k          6    8         1 != U1_3
                   30000k         10    7   F    -1  = W0_1
                   30000k          4    6   F    -1  = V1_1
                   30000k          5    4        -1 != U3_1
 ! Time = 350.29s, Average fail depth = 15, Memory usage = 159.4 MB
 !               Branches  Non-fixed    W       Branch decision
                   30000k          4    2        -1 != W2_2
                   30000k          5    1   F     0 != V3_2
                   30000k          8    3         0  = V0_1
                   30000k          6    5   F     1  = W4_3
                   40000k          7    8        -1 != V1_0
                   40000k          6    7   F     0  = U0_3
                   40000k          5    1        -1 != W3_3
                   40000k          4    6        -1  = V0_3
                   40000k          4    2   F     0  = V1_3
                   40000k          5    4         0 != W4_2
                   40000k          6    5   F    -1 != V3_3
                   40000k          9    3        -1 != W1_3
                   50000k          7    8   F     1 != V1_0
                   50000k          5    1         1  = U5_2
                   50000k          7    7   F    -1 != U5_0
                   50000k          5    6   F    -1  = W3_0
                   50000k          5    4   F     0 != W4_2
                   50000k          4    2   F     0 != W3_0
                   50000k          6    3   F    -1 != V3_2
                   50000k          6    5         0 != V3_2
 ! Time = 599.33s, Average fail depth = 15, Memory usage = 265.9 MB
 !               Branches  Non-fixed    W       Branch decision
                   60000k          6    8        -1  = U0_0
                   60000k          4    1         0 != W4_3
                   60000k          6    7         1  = V1_2
                   60000k          5    4   F     1  = W2_2
                   60000k          4    2         1 != V3_2
                   60000k          6    3         0  = V1_3
                   60000k          5    6        -1 != W1_0
                   60000k          6    5   F    -1 != V1_2
                   70000k          4    1         1  = V0_3
                   70000k          6    8        -1 != W1_2
                   70000k          7    7         0  = V2_3
                   70000k          5    4         0 != W2_0
                   70000k          8    3        -1 != V3_1
                   70000k          5    5         0  = W3_0
                   70000k          5    2         1  = U5_1
                   70000k          8    6        -1  = W5_0
                   80000k          6    8         0 != V2_0
                   80000k          4    1   F    -1  = V2_2
                   80000k          8    7   F     0 != U3_0
                   80000k          5    4         0  = V3_2
 ! Time = 950.79s, Average fail depth = 15, Memory usage = 358.5 MB
 !               Branches  Non-fixed    W       Branch decision
                   80000k          6    3   F    -1 != W0_2
                   80000k          6    5   F    -1  = W2_2
                   80000k          6    6   F    -1  = V3_1
                   80000k          8    2         0 != U3_3
                   90000k          6    8            -
                   90000k          9    7         1 != W5_3
                   90000k          7    3   F     1 != V5_1
                   90000k          4    1         1  = W3_1
                   90000k          5    4         0  = W3_2
                   90000k          5    5   F     0  = W5_1
                   90000k          5    6   F     1 != U2_0
                   90000k          4    2         1 != U5_2
                     100M          6    8        -1 != W4_0
                     100M          8    7   F    -1  = U2_0
                     100M          4    4   F     0 != W0_3
                     100M          4    1        -1 != V5_3
                     100M          6    3        -1 != U1_3
                     100M          5    5         1  = U0_1
                     100M          4    6   F     0  = V1_0
                     100M          4    2        -1 != U4_2
 ! Time = 1229.08s, Average fail depth = 16, Memory usage = 450.0 MB
 !               Branches  Non-fixed    W       Branch decision
                     110M          6    8   F    -1 != V5_0
                     110M          4    4         1 != V4_2
                     110M         10    7   F     0  = W5_0
                     110M          4    1   F    -1 != U3_0
                     110M          6    3         1 != U5_3
                     110M          5    6   F    -1  = W5_2
                     110M          6    5         1  = V5_3
                     110M          5    2        -1  = U5_1
                     120M          6    8         0 != W4_1
                     120M          8    7        -1 != U1_2
                     120M          4    1         0 != V5_0
                     120M          4    4         0 != V0_1
                     120M          6    3         1 != W4_3
                     120M          4    6        -1 != W5_2
                     120M          6    5   F     1 != U0_1
                     120M          5    2   F     0  = U0_3
                     130M          6    8        -1  = W2_2
                     130M          4    4         1 != U0_2
                     130M          9    3   F     0  = V4_0
                     130M         10    7   F     1  = U4_2
 ! Time = 1562.68s, Average fail depth = 16, Memory usage = 566.6 MB
 !               Branches  Non-fixed    W       Branch decision
                     130M          4    1   F    -1 != W4_2
                     130M          4    6         0  = W0_0
                     130M          6    5   F     0  = U2_1
                     130M          5    2         0 != W3_3
                     140M          6    8   F    -1  = U3_0
                     140M          4    4         1 != U5_3
                     140M         10    7        -1  = W5_0
                     140M          4    1         0 != U2_2
                     140M          8    3   F    -1 != U3_0
                     140M          5    6         1 != W5_0
                     140M          6    5         1 != W1_0
                     140M          6    2   F     1  = U2_3
                     150M          6    8   F    -1 != U3_0
                     150M          4    4         0  = W3_3
                     150M          7    3   F    -1  = W3_1
                     150M         10    7   F    -1  = U1_0
                     150M          5    6   F     1  = U3_1
                     150M          4    1         0  = U3_0
                     150M          5    5        -1 != W4_0
                     150M          5    2         0 != V2_1
 ! Time = 1831.31s, Average fail depth = 16, Memory usage = 655.4 MB
 !               Branches  Non-fixed    W       Branch decision
                     160M          6    8            -
                     160M          4    4         1 != V2_1
                     160M          5    3   F    -1 != U0_1
                     160M          5    6   F     1 != W5_0
                     160M          6    5   F    -1 != W5_2
                     160M         10    7         1 != U0_1
                     160M          4    1         1 != U4_0
                     160M          4    2        -1  = W5_3
                     170M          6    8        -1 != U3_0
                     170M          4    4         1  = W1_0
                     170M          8    3   F     1 != W3_1
                     170M         13    7        -1  = V1_1
                     170M          5    6   F     0  = V1_1
                     170M          4    5   F     0 != V4_2
                     170M          4    1        -1  = W2_3
                     170M          4    2   F    -1  = W5_0
                     180M          6    8   F     1 != U1_0
                     180M          4    4   F     1  = V4_0
                     180M          7    3   F     0 != V0_2
                     180M          8    7        -1  = U0_2
 ! Time = 2170.52s, Average fail depth = 16, Memory usage = 781.0 MB
 !               Branches  Non-fixed    W       Branch decision
                     180M          5    6        -1  = U5_0
                     180M          4    1        -1 != U3_1
                     180M          4    5   F    -1 != W4_3
                     180M          4    2         1 != W4_1
                     190M          6    8         0 != V3_2
                     190M          6    3   F    -1  = U5_0
                     190M         11    7        -1  = U3_2
                     190M          4    4         1  = W3_2
                     190M          5    6   F    -1 != U1_0
                     190M          4    1         1  = W3_2
                     190M          4    5        -1  = U0_0
                     190M          4    2         0  = W3_3
                     200M         10    3         0 != U5_1
                     200M          6    8   F     0 != W3_3
                     200M          4    4   F     1 != W1_3
                     200M          9    7   F    -1  = U2_3
                     200M          4    6   F     1  = W5_2
                     200M          4    1   F    -1  = U0_1
                     200M          4    5   F     0  = U5_0
                     200M          4    2        -1  = U3_2
 ! Time = 2444.65s, Average fail depth = 16, Memory usage = 875.5 MB
 !               Branches  Non-fixed    W       Branch decision
                     210M          5    3   F    -1 != V0_0
                     210M          6    8         1 != U3_0
                     210M          4    4   F     1  = W2_3
                     210M          7    7        -1 != V2_1
                     210M          5    6        -1 != U4_2
                     210M          4    1   F     1  = U1_0
                     210M          4    5   F     1  = V3_2
                     210M          4    2   F    -1  = W2_1
                     220M          5    3   F     0 != V2_2
                     220M          4    4         0 != U0_1
                     220M          6    8            -
                     220M          4    6        -1  = U2_1
                     220M          9    7   F    -1  = W4_3
                     220M          4    1         1 != V5_1
                     220M          4    5        -1  = W3_1
                     220M          4    2         0  = W1_1
                     230M         10    3   F     0 != U0_3
                     230M          4    4        -1 != U2_0
                     230M          6    8   F    -1  = W2_0
                     230M          6    6         0 != V1_1
 ! Time = 2778.72s, Average fail depth = 16, Memory usage = 993.5 MB
 !               Branches  Non-fixed    W       Branch decision
                     230M          9    7         1 != W1_2
                     230M          4    5         1 != W1_1
                     230M          4    1   F     1  = V2_0
                     230M          4    2   F    -1 != W4_1
                     240M          6    3         1 != U2_3
                     240M          4    4        -1  = W3_3
                     240M          6    8   F    -1 != U2_0
                     240M          5    6   F    -1 != U0_1
                     240M          6    7         0  = V1_2
                     240M          4    1   F     0 != W4_0
                     240M          4    5   F     0 != V3_0
                     240M          4    2        -1  = U1_3
                     250M          6    3         1  = V3_1
                     250M          5    4        -1 != V2_0
                     250M          6    8            -
                     250M          4    6         1 != U4_1
                     250M          8    7        -1 != U2_1
                     250M          6    1        -1  = U5_1
                     250M          4    2   F    -1 != U3_1
                     250M          4    5        -1 != U3_1
 ! Time = 3050.61s, Average fail depth = 16, Memory usage = 1.1 GB
 !               Branches  Non-fixed    W       Branch decision
                     260M          5    8   F    -1  = W5_2
                     260M          5    4         1  = U3_3
                     260M          7    3         1 != U0_0
                     260M          5    6         1  = U4_0
                     260M         13    7   F     1 != W3_1
                     260M          5    1   F    -1 != W2_3
                     260M          4    2   F    -1  = U4_1
                     260M          4    5   F     0 != V1_1
                     270M          5    6         0 != U1_1
                     270M          5    8   F        -
                     270M          7    3   F     0  = V2_1
                     270M          4    4   F     0  = U3_2
                     270M          8    7   F    -1 != V1_2
                     270M          4    1   F     0 != V5_0
                     270M          4    5   F    -1 != V5_2
                     270M          4    2        -1  = V5_0
                     280M          7    3   F     0 != U1_3
                     280M          5    8        -1 != U0_2
                     280M          5    6   F     0 != V3_2
                     280M          4    4   F     1 != U5_1
 ! Time = 3379.72s, Average fail depth = 16, Memory usage = 1.2 GB
 !               Branches  Non-fixed    W       Branch decision
                     280M         10    7   F     0 != V2_2
                     280M          5    1         1  = V4_3
                     280M          4    5   F    -1  = V5_2
                     280M          4    2   F    -1 != U3_2
                     290M          9    3         0 != V1_2
                     290M          6    8   F     1  = V5_1
                     290M          4    4         1 != U5_1
                     290M          4    6        -1  = W3_1
                     290M         11    7         0  = V1_0
                     290M          6    1   F    -1  = W3_1
                     290M          4    5         0 != W4_1
                     290M          4    2         1 != U2_1
                     300M          6    8   F    -1 != U3_3
                     300M          6    3   F     1 != U5_0
                     300M          5    6         0  = W0_2
                     300M          4    4         1 != U0_2
                     300M         12    7         1 != V0_1
                     300M          5    1         1  = W0_1
                     300M          4    5   F    -1 != U1_0
                     300M          4    2        -1 != U1_1
 ! Time = 3655.22s, Average fail depth = 16, Memory usage = 1.3 GB
 !               Branches  Non-fixed    W       Branch decision
                     310M          5    8   F    -1 != W3_1
                     310M          4    4   F     0 != W5_0
                     310M          6    3         0  = V0_1
                     310M          5    6         1 != U3_1
                     310M         12    7   F    -1 != V5_0
                     310M          6    1        -1  = U5_3
                     310M          4    5        -1  = V2_2
                     310M          4    2        -1  = V2_0
                     320M          5    8   F        -
                     320M          7    3   F    -1  = U5_2
                     320M          4    6   F    -1  = W4_2
                     320M          5    4   F     0  = U1_2
                     320M          9    7         0  = W0_3
                     320M          4    5   F     0  = W1_1
                     320M          6    1   F    -1 != V2_1
                     320M          4    2         0 != U1_0
                     330M          5    8        -1  = V2_0
                     330M          6    3   F    -1  = V2_1
                     330M          4    4        -1 != V2_3
                     330M          5    6        -1  = V4_0
 ! Time = 3988.47s, Average fail depth = 16, Memory usage = 1.4 GB
 !               Branches  Non-fixed    W       Branch decision
                     330M         10    7         0  = U0_1
                     330M          5    1         0 != U1_0
                     330M          4    5   F     1  = W3_0
                     330M          4    2         0  = V1_2
                     340M          5    4   F    -1  = V2_2
                     340M          6    8   F        -
                     340M          6    6   F     0 != V3_0
                     340M         10    7   F    -1 != V4_1
                     340M          8    3   F     1 != V1_1
                     340M          4    5        -1 != U3_3
                     340M          5    1   F    -1 != U5_2
                     340M          4    2         0  = U1_0
                     350M          4    6        -1  = V0_0
                     350M          6    8         1  = W0_2
                     350M          4    4         1 != W5_1
                     350M          5    7        -1  = U1_1
                     350M          4    5   F     1 != W0_2
                     350M          9    3        -1 != W4_3
                     350M          6    1        -1  = W2_2
                     350M          4    2   F     0 != W1_0
 ! Time = 4268.93s, Average fail depth = 16, Memory usage = 1.5 GB
 !               Branches  Non-fixed    W       Branch decision
                     360M          4    6   F     1  = V5_0
                     360M          6    8   F        -
                     360M          4    4         0 != W4_1
                     360M          6    7   F     0  = W2_1
                     360M         12    3        -1 != V2_1
                     360M          4    5   F    -1  = U5_2
                     360M          4    2   F     0 != V1_3
                     360M          5    1   F     1  = U0_1
                     370M          4    6        -1  = V3_0
                     370M          5    8        -1  = V4_2
                     370M          4    4         0 != V5_3
                     370M          9    7         0  = V0_2
                     370M         15    3   F     0  = U3_3
                     370M          4    2         1 != V4_1
                     370M          4    5   F    -1 != W5_2
                     370M          6    1        -1  = U1_0
                     380M          5    6   F     0  = U0_2
                     380M          5    8        -1  = U4_2
                     380M         11    7         0 != V5_2
                     380M          4    4         0  = W4_0
 ! Time = 4593.11s, Average fail depth = 16, Memory usage = 1.6 GB
 !               Branches  Non-fixed    W       Branch decision
                     380M         11    3   F    -1  = U0_2
                     380M          4    5         0 != W5_3
                     380M          4    2   F    -1  = U2_3
                     380M          6    1   F     0  = W4_2
                     390M          4    6   F    -1  = V2_3
                     390M          5    8        -1 != W5_2
                     390M          8    7        -1 != W4_3
                     390M          4    4   F    -1 != U2_1
                     390M         12    3   F     0 != U1_1
                     390M          4    5   F     1  = U5_2
                     390M          5    1   F    -1 != V3_0
                     390M          4    2   F     0  = V3_1
                     400M          5    6   F    -1  = V0_0
                     400M          5    8         0 != V0_0
                     400M         11    7        -1 != W3_0
                     400M          4    4   F     1 != V2_0
                     400M         12    3         1  = V4_1
                     400M          4    5        -1  = W3_0
                     400M          5    1         1  = W2_0
                     400M          4    2   F    -1 != U3_1
 ! Time = 4890.20s, Average fail depth = 16, Memory usage = 1.7 GB
 !               Branches  Non-fixed    W       Branch decision
                     410M          4    6   F     1  = V2_3
                     410M          7    8   F    -1  = W0_1
                     410M          4    4   F     1  = U4_0
                     410M          9    7         1  = W3_0
                     410M         12    3   F    -1 != U4_0
                     410M          4    5   F     1  = U3_2
                     410M          4    2   F     0  = W4_2
                     410M          5    1   F    -1  = V4_2
                     420M          5    6   F    -1 != V1_2
                     420M          6    8        -1  = W3_1
                     420M          4    4         1 != U3_0
                     420M         11    3         0  = V1_2
                     420M          4    5   F     1  = U2_1
                     420M         11    7        -1  = V0_2
                     420M          4    2         1 != W3_1
                     420M          6    1            -
                     430M          6    8   F     0  = V5_1
                     430M          5    6   F     0  = U2_0
                     430M          4    4        -1  = V1_0
                     430M          7    3         1  = V1_3
 ! Time = 5204.79s, Average fail depth = 16, Memory usage = 1.8 GB
 !               Branches  Non-fixed    W       Branch decision
                     430M          4    5   F    -1  = V1_3
                     430M         11    7         0  = V2_2
                     430M          4    2   F     1  = V2_3
                     430M          5    1         0 != U3_3
                     440M          7    8            -
                     440M          5    6   F    -1  = U5_3
                     440M          4    4   F     1 != W3_0
                     440M          8    3   F    -1  = W5_0
                     440M          9    7        -1 != U4_3
                     440M          4    5         1  = V0_0
                     440M          4    2        -1  = W4_3
                     440M          5    1   F     0  = V5_3
                     450M          6    8            -
                     450M          6    6        -1 != U1_0
                     450M          4    4   F     0  = V3_3
                     450M         11    3         1 != V3_0
                     450M         13    7        -1 != U3_2
                     450M          4    5        -1 != V5_3
                     450M          4    2         0 != W4_3
                     450M          6    1   F    -1  = V5_0
 ! Time = 5504.15s, Average fail depth = 16, Memory usage = 1.9 GB
 !               Branches  Non-fixed    W       Branch decision
                     460M          4    6        -1  = W4_1
                     460M          6    8   F    -1 != W0_1
                     460M          4    4        -1  = U1_0
                     460M         11    7   F     1  = W3_0
                     460M          4    5   F    -1 != V4_1
                     460M          8    3   F    -1 != V2_0
                     460M          4    2        -1 != W0_1
                     460M          5    1        -1  = V3_2
                     470M          4    6   F     0 != V5_1
                     470M          7    8         1  = U0_0
                     470M          4    4         1 != V3_0
                     470M         10    7   F     0 != U2_0
                     470M          4    5        -1 != V4_1
                     470M          7    3        -1 != V2_0
                     470M          4    2         0 != U1_2
                     470M          6    1         1 != W4_3
                     480M          6    6         0 != U1_2
                     480M          6    8         0  = W2_3
                     480M          5    4   F    -1  = W0_0
                     480M         10    7         0 != U1_2
 ! Time = 5826.04s, Average fail depth = 16, Memory usage = 2.1 GB
 !               Branches  Non-fixed    W       Branch decision
                     480M          4    5   F     0 != U3_2
                     480M          6    3   F    -1  = V5_2
                     480M          4    2         1  = W2_1
                     480M          5    1         1  = U0_2
                     490M          4    6        -1  = W2_0
                     490M          6    8         1 != V3_0
                     490M          4    4   F     0  = W3_1
                     490M         10    7   F     0 != V2_1
                     490M          4    5   F    -1  = V0_2
                     490M         15    3         0 != W4_3
                     490M          4    2   F     0  = W0_3
                     490M          5    1   F     0 != U5_0
                     500M          5    6   F    -1  = V3_0
                     500M          4    4         0  = V0_3
                     500M          6    8        -1  = V4_2
                     500M         15    7   F     0 != V2_2
                     500M         10    3        -1  = U1_0
                     500M          4    5         0 != U2_1
                     500M          4    2        -1 != V4_3
                     500M          5    1         1 != W3_1
 ! Time = 6118.97s, Average fail depth = 16, Memory usage = 2.1 GB
 !               Branches  Non-fixed    W       Branch decision
                     510M          6    6   F    -1  = U0_2
                     510M          4    4   F     1 != V3_1
                     510M          6    8   F    -1  = V1_0
                     510M          8    7         0 != U1_0
                     510M          4    5   F     1 != U3_1
                     510M          8    3   F    -1 != U0_3
                     510M          4    2   F    -1  = W4_2
                     510M          5    1   F    -1 != U1_3
                     520M          6    6         0 != W0_2
                     520M          6    8         0 != W3_2
                     520M          4    4         1 != U0_1
                     520M         10    7   F     0 != U2_0
                     520M         14    3         1 != W4_0
                     520M          4    5         1 != V0_1
                     520M          4    2         0 != U1_3
                     520M          5    1         0 != V4_0
                     530M          5    6         0  = U3_2
                     530M          4    4         0 != U3_1
                     530M          7    8   F    -1 != W2_0
                     530M          7    7        -1 != V5_1
 ! Time = 6422.74s, Average fail depth = 16, Memory usage = 2.3 GB
 !               Branches  Non-fixed    W       Branch decision
                     530M          4    5         0 != V3_1
                     530M         11    3   F     0 != W5_0
                     530M          4    2   F    -1 != W5_3
                     530M          6    1         0  = V0_3
                     540M          5    6   F     0  = V0_1
                     540M          4    4         1 != U5_1
                     540M          6    8   F     1  = W2_1
                     540M          4    5         1 != W2_0
                     540M          9    3   F     0 != U4_3
                     540M          7    7         1 != U4_2
                     540M          4    2         0  = U2_3
                     540M          5    1         0 != W3_3
                     550M          6    6        -1 != W2_0
                     550M          4    4         1  = W3_1
                     550M          7    8         0  = W0_3
                     550M          4    5         1 != W0_1
                     550M          7    3        -1  = U3_1
                     550M          4    2   F    -1  = U1_0
                     550M          5    1         1 != W1_3
                     550M          7    7   F     0  = U1_2
 ! Time = 6727.81s, Average fail depth = 16, Memory usage = 2.4 GB
 !               Branches  Non-fixed    W       Branch decision
                     560M          5    6   F    -1 != V2_1
                     560M          6    8   F     1  = V4_1
                     560M          4    4   F     0  = W5_3
                     560M          4    5   F     1  = U0_0
                     560M         15    3   F    -1  = V1_1
                     560M          4    2        -1 != U1_3
                     560M          5    1   F    -1  = U1_2
                     560M          8    7   F     0 != W3_3
                     570M          5    6         0 != V4_0
                     570M          6    8        -1 != W2_1
                     570M          4    4   F     0  = W0_0
                     570M          4    5         1  = U4_0
                     570M         15    3        -1  = V1_1
                     570M          4    2         1 != U5_2
                     570M         11    7   F    -1 != V3_2
                     570M          6    1   F    -1  = V4_2
                     580M          6    6         0 != V5_0
                     580M          6    8        -1  = W3_3
                     580M          4    4   F     0  = W0_0
                     580M         12    3   F    -1 != W3_3
 ! Time = 7029.95s, Average fail depth = 16, Memory usage = 2.5 GB
 !               Branches  Non-fixed    W       Branch decision
                     580M          4    5   F    -1  = W4_0
                     580M          4    2         0 != U0_3
                     580M          7    7   F     0  = W3_0
                     580M          5    1         1  = V1_3
                     590M          4    6   F    -1  = V0_1
                     590M          6    8        -1 != W0_2
                     590M          4    4         1 != W3_0
                     590M         12    3   F    -1 != W3_2
submitit INFO (2023-04-30 21:21:12,351) - Job has timed out. Ran 119 minutes out of requested 121 minutes.
submitit WARNING (2023-04-30 21:21:12,351) - Caught signal SIGUSR2 on cpunode26: this job is timed-out.
submitit INFO (2023-04-30 21:21:12,351) - Not checkpointing nor requeuing since I am a slave (procid=2).
submitit WARNING (2023-04-30 21:21:12,350) - Bypassing signal SIGCONT
                     590M          4    5         1  = V4_1
                     590M          7    7        -1 != U3_0
                     590M          8    2        -1 != W0_1
 ! ----------------------------------------------------------------------------
 ! Search terminated by limit, no solution found.
 ! ----------------------------------------------------------------------------
 ! Number of branches     : 4747110750
 ! Number of fails        : 2321351326
 ! Total memory usage     : 2.6 GB (2.6 GB CP Optimizer + 0.0 GB Concert)
 ! Time spent in solve    : 7200.04s (7200.03s engine + 0.02s extraction)
 ! Search speed (br. / s) : 659318.2
 ! ----------------------------------------------------------------------------
Unknown
Saving stats to: /h/30/pashootan/Matrix-Mult-CP/logs/2x2x2_6_Apr30_19:21:46/27537_2_stats.csv
submitit INFO (2023-04-30 21:21:50,114) - Job completed successfully
